  Job Started  at 16:29.41 21st December   2016

  Number of CPUs =    16

  Host name      = sharc-node044.shef.ac.uk

  Total number of configurations input =   1

*  Input for Configuration =   1                                               *

  Formula = C2O2N4H8

  Number of irreducible atoms/shells =      16

  Total number atoms/shells =      16

  Dimensionality = 3               :  Bulk

  Cartesian lattice vectors (Angstroms) :

        5.550830    0.000000    0.000000
        0.000019    5.550830    0.000000
        0.000003   -0.000003    4.695612

  Cell parameters (Angstroms/Degrees):

  a =       5.5508    alpha =  90.0000
  b =       5.5508    beta  =  90.0000
  c =       4.6956    gamma =  89.9998

  Initial cell volume =         144.679853 Angs**3

  Temperature of configuration =  0.000     K

  Pressure of configuration =         0.000 GPa

  Fractional coordinates of asymmetric unit :

   No.  Atomic       x           y          z         Charge      Occupancy
        Label      (Frac)      (Frac)     (Frac)        (e)         (Frac)
      1 C     c    0.000000    0.500000    0.326000     0.38000    1.000000
      2 C     c    0.499999 *  0.000001 *  0.615026 *   0.38000    1.000000
      3 O     c    0.000000 *  0.500000 *  0.588166 *  -0.38000    1.000000
      4 O     c    0.500000 *  1.000000 *  0.352857 *  -0.38000    1.000000
      5 N     c    0.142932 *  0.642932 *  0.181010 *  -0.83000    1.000000
      6 N     c    0.857068 *  0.357068 *  0.181010 *  -0.83000    1.000000
      7 N     c    0.642933 *  0.857067 *  0.760014 *  -0.83000    1.000000
      8 N     c    0.357068 *  0.142932 *  0.760013 *  -0.83000    1.000000
      9 H     c    0.261677 *  0.761677 *  0.277315 *   0.41500    1.000000
     10 H     c    0.738323 *  0.238323 *  0.277315 *   0.41500    1.000000
     11 H     c    0.761678 *  0.738322 *  0.663710 *   0.41500    1.000000
     12 H     c    0.238322 *  0.261678 *  0.663710 *   0.41500    1.000000
     13 H     c    0.137859 *  0.637859 *  0.960432 *   0.41500    1.000000
     14 H     c    0.862141 *  0.362141 *  0.960432 *   0.41500    1.000000
     15 H     c    0.637858 *  0.862142 *  0.980591 *   0.41500    1.000000
     16 H     c    0.362141 *  0.137859 *  0.980592 *   0.41500    1.000000

  Molecule list generated from bond lengths :

  Total number of molecules =     2

Molecule No./:  Atoms
Periodicity  :
     1  0    : C    c     1 O    c     3 N    c     5 N    c     6 H    c     9
             : H    c    10 H    c    13 H    c    14
     2  0    : C    c     2 O    c     4 N    c     7 N    c     8 H    c    11
             : H    c    12 H    c    15 H    c    16

*  General input information                                                   *

  Species output for all configurations :

  Species    Type    Atomic    Atomic    Charge       Radii (Angs)     Library
                     Number     Mass       (e)     Cova   Ionic  VDW   Symbol
    C        Core        6      12.01   0.380000   0.770  0.000  1.530
    O        Core        8      16.00  -0.380000   0.730  0.000  1.360
    N        Core        7      14.01  -0.830000   0.750  0.000  1.480
    H        Core        1       1.01   0.415000   0.370  0.000  1.080

  Lattice summation method               =    Ewald          (3-D)
                                         =    Parry          (2-D)
                                         =    Saunders et al (1-D)
  Accuracy factor for lattice sums       =   12.000

  Time limit = Infinity

  Maximum range for interatomic potentials =    100000.000000 Angstroms

  C6 terms to be calculated in real and reciprocal space

  Intramolecular potentials :

Atom  Types   Potential         A         B         C         D     Cutoffs(Ang)
  1     2                                                            Min    Max
C    c O    c Morse          6.29      2.06      1.23      0.00     0.000  1.600
C    c N    c Morse          4.21      2.00      1.32      0.00     0.000  1.600
H    c N    c Morse          3.82      2.28      1.03      0.00     0.000  1.600

  Intermolecular potentials :

Atom  Types   Potential         A         B         C         D     Cutoffs(Ang)
  1     2                                                            Min    Max
C    c O    c Lennard 12  6 0.390E+05  35.3      0.00      0.00     0.000 40.000
C    c N    c Lennard 12  6 0.112E+06  55.4      0.00      0.00     0.000 40.000
O    c O    c Lennard 12  6 0.118E+05  21.6      0.00      0.00     0.000 40.000
N    c O    c Lennard 12  6 0.341E+05  34.0      0.00      0.00     0.000 40.000
N    c N    c Lennard 12  6 0.983E+05  53.4      0.00      0.00     0.000 40.000
C    c C    c Lennard 12  6 0.129E+06  57.5      0.00      0.00     0.000 40.000

  General Three-body potentials :

  Harmonic form:

Atom    Atom    Atom           Force Constants            Theta     Cutoffs
  1       2       3     (eVrad**-2/eVrad**-3/eVrad**-4)   (deg)  1-2  1-3  2-3
C     c N     c O     c  5.897        0.0000    0.0000   121.000 0.00 0.00 0.00
                                                                 1.60 1.60 3.00
N     c H     c C     c  3.252        0.0000    0.0000   120.000 0.00 0.00 0.00
                                                                 1.40 1.60 2.60
N     c H     c H     c  2.862        0.0000    0.0000   120.000 0.00 0.00 0.00
                                                                 1.40 1.40 2.30
C     c N     c N     c  8.846        0.0000    0.0000   118.000 0.00 0.00 0.00
                                                                 1.60 1.60 2.80

  General Four-body potentials :

  Standard form:

         Atom Types             Force cst Sign Phase Phi0         Cutoffs
   1       2       3       4       (eV)                     1-2  2-3  3-4  4-1
O     c C     c N     c H     c  0.2602     -   2     0.00  1.40 1.40 1.30 0.00
N     c C     c N     c H     c  0.2170E-02 -   2     0.00  1.60 1.60 1.30 0.00
O     c C     c N     c N     c  0.4340     -   2     0.00  1.60 1.60 3.00 0.00

!! ERROR : second derivatives unavailable in parallel

mpirun -np 16 gulp < ./example11.gin | tee ./example11.got
*                       GENERAL UTILITY LATTICE PROGRAM                        *
*                                 Julian Gale                                  *
*                      Nanochemistry Research Institute                        *
*                           Department of Chemistry                            *
*                    Curtin University, Western Australia                      *
* Version = 4.4.2 * Last modified = 20th June 2016                             *
*  optimise     - perform optimisation run                                     *
*  distance     - calculate distances                                          *
*  conjugate    - use conjugate gradients minimiser                            *
* Sodium ion migration in quartz : uses the translate option                   *
* to perform 2-D optimisation for sodium at intervals along                    *
* the channel within quartz structure                                          *

[...]

  Formula = Si2AlNaO6

[...]

   No.  Atomic       x           y          z         Charge      Occupancy
        Label      (Frac)      (Frac)     (Frac)        (e)         (Frac)
      1 Si    c    0.000000    0.468200    0.666666     4.00000    1.000000
      2 Si    c    0.562283 *  0.553474 *  0.985986 *   4.00000    1.000000
      3 Al    c    0.445925 *  0.991213 *  0.348165 *   3.00000    1.000000
      4 Na    c    0.996987 *  0.272679 *  0.172946     1.00000    1.000000
      5 O     c    0.442025 *  0.289142 *  0.194695 *   0.86902    1.000000
      6 O     c    0.727571 *  0.131612 *  0.581260 *   0.86902    1.000000
      7 O     c    0.900494 *  0.614677 *  0.895918 *   0.86902    1.000000
      8 O     c    0.089785 *  0.698420 *  0.439177 *   0.86902    1.000000
      9 O     c    0.574325 *  0.846687 *  0.110388 *   0.86902    1.000000
     10 O     c    0.293304 *  0.427050 *  0.765705 *   0.86902    1.000000
     11 O     s    0.451160 *  0.296281 *  0.182836 *  -2.86902    1.000000
     12 O     s    0.741396 *  0.160744 *  0.575279 *  -2.86902    1.000000
     13 O     s    0.874954 *  0.591869 *  0.883898 *  -2.86902    1.000000
     14 O     s    0.104617 *  0.690857 *  0.457113 *  -2.86902    1.000000
     15 O     s    0.569630 *  0.824747 *  0.110755 *  -2.86902    1.000000
     16 O     s    0.289597 *  0.442377 *  0.777587 *  -2.86902    1.000000

  Distance calculation :

  Cutoff for distances  =      2.500000 Angstroms

  Asymmetric unit site  Full lattice sites    No.  Distance      No.  Distance
      No.   At.No.            At.No.                (Angs)             (Angs)
       1   Si    core        O     core         1    1.5775        1    1.5898
                                                1    1.6266        1    1.6423
                             O     shell        1    1.4774        1    1.4907
                                                1    1.5812        1    1.6069
       2   Si    core        O     core         1    1.5644        1    1.5945
                                                1    1.6095        1    1.6525
                             O     shell        1    1.4784        1    1.5292
                                                1    1.5530        1    1.6223
       3   Al    core        O     core         1    1.6905        1    1.6914
                                                1    1.7331        1    1.7393
                             O     shell        1    1.6922        1    1.7347
                                                1    1.7609        1    1.7844
       4   Na    core        O     core         1    2.1127        1    2.1511
                                                1    2.3882        1    2.4679
                                                1    2.4878
                             O     shell        1    2.1771        1    2.1788
                                                1    2.4036        1    2.4334
                                                1    2.4766        1    2.4907
       5   O     core        Na    core         1    2.1511
                             Al    core         1    1.6914
                             Si    core         1    1.5945
                             O     shell        1    0.0760        1    2.4244
       6   O     core        Na    core         1    2.4878
                             Al    core         1    1.7393
                             Si    core         1    1.5898
                             O     shell        1    0.1282
       7   O     core        Na    core         1    2.4679
                             Si    core         1    1.6095        1    1.6266
                             O     shell        1    0.1359
       8   O     core        Na    core         1    2.3882
                             Al    core         1    1.6905
                             Si    core         1    1.5775
                             O     shell        1    0.1371        1    2.4355
[...]
       12           0.189655   0.189655   0.189655         0.0161
       13           0.206897   0.206897   0.206897         0.0161
       14           0.224138   0.224138   0.224138         0.0161
       15           0.241379   0.241379   0.241379         0.0161
       16           0.258621   0.258621   0.258621         0.0161
       17           0.275862   0.275862   0.275862         0.0161
       18           0.293103   0.293103   0.293103         0.0161
       19           0.310345   0.310345   0.310345         0.0161
       20           0.327586   0.327586   0.327586         0.0161
       21           0.344828   0.344828   0.344828         0.0161
       22           0.362069   0.362069   0.362069         0.0161
       23           0.379310   0.379310   0.379310         0.0161
       24           0.396552   0.396552   0.396552         0.0161
       25           0.413793   0.413793   0.413793         0.0161
       26           0.431034   0.431034   0.431034         0.0161
       27           0.448276   0.448276   0.448276         0.0161
       28           0.465517   0.465517   0.465517         0.0161
       29           0.482759   0.482759   0.482759         0.0161
       30           0.500000   0.500000   0.500000         0.0161
       31           0.125000   0.125000   0.125000         0.0161
       32           0.125000   0.125000   0.375000         0.0161
       33           0.125000   0.125000   0.625000         0.0161
       34           0.125000   0.125000   0.875000         0.0161
       35           0.125000   0.375000   0.125000         0.0161
       36           0.125000   0.375000   0.375000         0.0161
       37           0.125000   0.375000   0.625000         0.0161
       38           0.125000   0.375000   0.875000         0.0161
       39           0.125000   0.625000   0.125000         0.0161
       40           0.125000   0.625000   0.375000         0.0161
       41           0.125000   0.625000   0.625000         0.0161
       42           0.125000   0.625000   0.875000         0.0161
       43           0.125000   0.875000   0.125000         0.0161
       44           0.125000   0.875000   0.375000         0.0161
       45           0.125000   0.875000   0.625000         0.0161
       46           0.125000   0.875000   0.875000         0.0161
       47           0.375000   0.125000   0.125000         0.0161
       48           0.375000   0.125000   0.375000         0.0161
       49           0.375000   0.125000   0.625000         0.0161
       50           0.375000   0.125000   0.875000         0.0161
       51           0.375000   0.375000   0.125000         0.0161
       52           0.375000   0.375000   0.375000         0.0161
       53           0.375000   0.375000   0.625000         0.0161
       54           0.375000   0.375000   0.875000         0.0161
       55           0.375000   0.625000   0.125000         0.0161
       56           0.375000   0.625000   0.375000         0.0161
       57           0.375000   0.625000   0.625000         0.0161
       58           0.375000   0.625000   0.875000         0.0161
       59           0.375000   0.875000   0.125000         0.0161
       60           0.375000   0.875000   0.375000         0.0161
       61           0.375000   0.875000   0.625000         0.0161
       62           0.375000   0.875000   0.875000         0.0161

[...]

mpirun -np 16 gulp < ./example6.gin | tee ./example6.got
*                       GENERAL UTILITY LATTICE PROGRAM                        *
*                                 Julian Gale                                  *
*                      Nanochemistry Research Institute                        *
*                           Department of Chemistry                            *
*                    Curtin University, Western Australia                      *
* Version = 4.4.2 * Last modified = 20th June 2016                             *
*  optimise     - perform optimisation run                                     *
*  conp         - constant pressure calculation                                *
*  property     - calculate properties for final geometry                      *
*  defect       - perform defect calculation after bulk run                    *
*  regi_before  - output region 1 at start of defect calculation               *
*  conjugate    - use conjugate gradients minimiser                            *
* Example of defect impurity calc : Li substituted into MgO                    *

[...]

  Formula = OMg

[...]

mpirun -np 16 gulp < ./example7a.gin | tee ./example7a.got
*                       GENERAL UTILITY LATTICE PROGRAM                        *
*                                 Julian Gale                                  *
*                      Nanochemistry Research Institute                        *
*                           Department of Chemistry                            *
*                    Curtin University, Western Australia                      *
* Version = 4.4.2 * Last modified = 20th June 2016                             *
*  transition   - transition state search by rfo method                        *
*  bulk_noopt   - do not optimise during bulk calculation                      *
*  property     - calculate properties for final geometry                      *
*  defect       - perform defect calculation after bulk run                    *
*  regi_before  - output region 1 at start of defect calculation               *
*  nodsym       - symmetry not to be used in defect calculation                *
*  conjugate    - use conjugate gradients minimiser                            *
*  rfo          - optimisation step to be determined by RFO method             *
* Example of defect transition state calc : Magnesium vacancy migration        *

!! ERROR : RFO keyword cannot be used with conjugate gradients

mpirun -np 16 gulp < ./example7b.gin | tee ./example7b.got
*                       GENERAL UTILITY LATTICE PROGRAM                        *
*                                 Julian Gale                                  *
*                      Nanochemistry Research Institute                        *
*                           Department of Chemistry                            *
*                    Curtin University, Western Australia                      *
* Version = 4.4.2 * Last modified = 20th June 2016                             *
*  optimise     - perform optimisation run                                     *
*  bulk_noopt   - do not optimise during bulk calculation                      *
*  property     - calculate properties for final geometry                      *
*  defect       - perform defect calculation after bulk run                    *
*  regi_before  - output region 1 at start of defect calculation               *
*  conjugate    - use conjugate gradients minimiser                            *
* Example of defect transition state calc : Magnesium vacancy migration        *

[...]

  Formula = O4Mg4

[...]

Atom  Types   Potential         A         B         C         D     Cutoffs(Ang)
  1     2                                                            Min    Max
Mg   c O    s Buckingham    0.128E+04 0.300      0.00      0.00     0.000  5.000
O    s O    s Buckingham    0.128E+04 0.300      27.9      0.00     0.000  5.000
O    c O    s Spring (c-s)   74.9      0.00      0.00      0.00     0.000  0.800

[...]

mpirun -np 16 gulp < ./example8.gin | tee ./example8.got
*                       GENERAL UTILITY LATTICE PROGRAM                        *
*                                 Julian Gale                                  *
*                      Nanochemistry Research Institute                        *
*                           Department of Chemistry                            *
*                    Curtin University, Western Australia                      *
* Version = 4.4.2 * Last modified = 20th June 2016                             *
*  optimise     - perform optimisation run                                     *
*  bulk_noopt   - do not optimise during bulk calculation                      *
*  property     - calculate properties for final geometry                      *
*  defect       - perform defect calculation after bulk run                    *
*  molecule     - molecule option activated, Coulomb subtract within molecule  *
*  conjugate    - use conjugate gradients minimiser                            *
* Vacancy of SO4 2- in BaSO4 : example of molecular defect calculation         *

[...]

  Formula = Ba4S4O16

[...]

  Crystal family                   :  Orthorhombic
  Crystal class  (Groth - 1921)    :  Orthorhombic Bipyramidal

  Space group (centrosymmetric)    :  P N M A

  Patterson group                  :  P m m m

[...]

  Cell parameters (Angstroms/Degrees):

  a =       8.8494    alpha =  90.0000
  b =       5.5113    beta  =  90.0000
  c =       7.1222    gamma =  90.0000

  Initial cell volume =         347.359573 Angs**3

[...]

   No.  Atomic       x           y          z         Charge      Occupancy
        Label      (Frac)      (Frac)     (Frac)        (e)         (Frac)
      1 Ba    c    0.184032    0.250000    0.158717     2.00000    1.000000
      2 S     c    0.442932    0.750000    0.185592     1.56000    1.000000
      3 O     c    0.597632    0.750000    0.101962     0.56000    1.000000
      4 O     c    0.318384    0.750000    0.040682     0.56000    1.000000
      5 O     c    0.424643    0.971129    0.309411     0.56000    1.000000
      6 O     s    0.598916    0.750000    0.101520    -1.45000    1.000000
      7 O     s    0.319567    0.750000    0.039854    -1.45000    1.000000
      8 O     s    0.425158    0.970631    0.308700    -1.45000    1.000000

  Molecule list generated from bond lengths :

  Total number of molecules =     4

Molecule No./:  Atoms
Periodicity  :
     1  0    : S    c     5 O    c     9 O    c    13 O    c    17 O    c    24
             : O    s    25 O    s    29 O    s    33 O    s    40
     2  0    : S    c     6 O    c    10 O    c    14 O    c    18 O    c    23
             : O    s    26 O    s    30 O    s    34 O    s    39
     3  0    : S    c     7 O    c    11 O    c    15 O    c    19 O    c    22
             : O    s    27 O    s    31 O    s    35 O    s    38
     4  0    : S    c     8 O    c    12 O    c    16 O    c    20 O    c    21
             : O    s    28 O    s    32 O    s    36 O    s    37

[...]

  Species    Type    Atomic    Atomic    Charge       Radii (Angs)     Library
                     Number     Mass       (e)     Cova   Ionic  VDW   Symbol
    Ba       Core       56     137.33   2.000000   0.222  0.000  2.000
    S        Core       16      32.07   1.560000   1.020  0.000  1.700
    O        Core        8      16.00   0.560000   0.730  0.000  1.360
    O        Shell       8       0.00  -1.450000   0.730  0.000  1.360

[...]

  C6 terms to be calculated in real/reciprocal space by one-centre decomposition

[...]

Atom  Types   Potential         A         B         C         D     Cutoffs(Ang)
  1     2                                                            Min    Max
Ba   c O    s Buckingham    0.400E+04 0.291      0.00      0.00     0.000  8.000
O    c O    s Spring (c-s)   15.0      0.00      0.00      0.00     0.000  0.800

  Intramolecular potentials :

Atom  Types   Potential         A         B         C         D     Cutoffs(Ang)
  1     2                                                            Min    Max
S    c O    s Morse          4.76      2.13      1.53      0.00     0.000  1.800

  Intermolecular potentials :

Atom  Types   Potential         A         B         C         D     Cutoffs(Ang)
  1     2                                                            Min    Max
O    s O    s Buckingham    0.150E+06 0.198      28.0      0.00     2.700 16.000

  General Three-body potentials :

  Harmonic form:

Atom    Atom    Atom           Force Constants            Theta     Cutoffs
  1       2       3     (eVrad**-2/eVrad**-3/eVrad**-4)   (deg)  1-2  1-3  2-3
S     c O     s O     s  7.750        0.0000    0.0000   109.470 0.00 0.00 0.00
                                                                 1.80 1.80 3.20

[...]

mpirun -np 16 gulp < ./example9.gin | tee ./example9.got
*                       GENERAL UTILITY LATTICE PROGRAM                        *
*                                 Julian Gale                                  *
*                      Nanochemistry Research Institute                        *
*                           Department of Chemistry                            *
*                    Curtin University, Western Australia                      *
* Version = 4.4.2 * Last modified = 20th June 2016                             *
*  fit          - perform fitting run                                          *
*  optimise     - perform optimisation run after fitting                       *
*  conp         - constant pressure calculation                                *
*  property     - calculate properties for final geometry                      *
*  phonon       - calculate phonons for final geometry                         *
*  compare      - compare initial and final structures                         *
*  conjugate    - use conjugate gradients minimiser                            *

  Job Started  at 16:44.36 21st December   2016

  Number of CPUs =    16

  Host name      = sharc-node044.shef.ac.uk

  Total number of configurations input =   1

*  Input for Configuration =   1                                               *

  Formula = MgO

  Number of irreducible atoms/shells =       3

  Total number atoms/shells =       3

  Dimensionality = 3               :  Bulk

  Symmetry :

  Crystal family                   :  Cubic
  Crystal class  (Groth - 1921)    :  Cubic Hexakisoctahedral

  Space group (centrosymmetric)    :  F M 3 M

  Patterson group                  :  F m -3 m

  Cartesian lattice vectors (Angstroms) :

        0.000000    2.106000    2.106000
        2.106000    0.000000    2.106000
        2.106000    2.106000    0.000000

  Primitive cell parameters :            Full cell parameters :

  a =   2.9783    alpha =  60.0000       a =   4.2120    alpha =  90.0000
  b =   2.9783    beta  =  60.0000       b =   4.2120    beta  =  90.0000
  c =   2.9783    gamma =  60.0000       c =   4.2120    gamma =  90.0000

  Initial volumes (Angstroms**3):

  Primitive cell =          18.681214    Full cell =          74.724856

  Temperature of configuration =  0.000     K

  Pressure of configuration =         0.000 GPa

  Fractional coordinates of asymmetric unit :

   No.  Atomic       x           y          z         Charge      Occupancy
        Label      (Frac)      (Frac)     (Frac)        (e)         (Frac)
      1 Mg    c    0.000000    0.000000    0.000000     2.00000    1.000000
      2 O     c    0.500000    0.500000    0.500000     0.80000    1.000000
      3 O     bs   0.500000    0.500000    0.500000    -2.80000    1.000000

  Constraints :

  Constraint no.      Unconstrained     Constrained    Coefficient    Offset
                         Variable         Variable
           1              Strain 1        Strain 2       1.00000      0.0000
           2              Strain 1        Strain 3       1.00000      0.0000

*  General input information                                                   *

  Species output for all configurations :

  Species    Type    Atomic    Atomic    Charge       Radii (Angs)     Library
                     Number     Mass       (e)     Cova   Ionic  VDW   Symbol
    Mg       Core       12      24.31   2.000000   1.100  0.000  1.640
    O        Core        8      16.00   0.800000   0.730  0.000  1.360
    O        BShell      8       0.00  -2.800000   0.730  1.125  1.360

  Lattice summation method               =    Ewald          (3-D)
                                         =    Parry          (2-D)
                                         =    Saunders et al (1-D)
  Accuracy factor for lattice sums       =   12.000

  Time limit = Infinity

  Maximum range for interatomic potentials =    100000.000000 Angstroms

  General interatomic potentials :

Atom  Types   Potential         A         B         C         D     Cutoffs(Ang)
  1     2                                                            Min    Max
Mg   c O    s Buckingham     25.9     0.304      0.00      0.00     0.000 10.000
O    c O    s Spring (c-s)   45.2      0.00      0.00      0.00     0.000  0.800
O    s O    s BSM            315.      1.20      0.00      0.00     0.000  0.100
O    s O    s Buckingham     0.00     0.300      36.0      0.00     0.000 10.000

!! ERROR : second derivatives unavailable in parallel